TOUR_SECTION
1
81
141
115
151
94
163
185
152
29
37
14
200
144
147
69
86
34
193
107
39
124
67
166
92
32
16
45
63
133
179
167
114
148
135
71
36
112
76
56
116
80
160
85
84
113
150
117
153
139
87
55
46
195
194
8
97
118
127
145
22
42
43
66
59
182
72
25
184
126
4
137
15
171
120
52
187
93
53
3
30
104
128
157
31
17
190
38
101
174
121
6
183
155
188
40
58
173
96
134
100
88
35
180
175
82
57
19
197
91
75
21
165
65
33
130
169
162
5
198
201
7
196
102
177
18
181
2
60
62
41
44
12
79
146
89
64
54
61
68
23
161
98
51
138
10
136
9
111
73
119
178
122
103
105
20
172
50
110
74
199
154
142
13
70
24
49
168
83
164
123
77
140
28
191
149
47
95
132
26
78
156
106
189
27
159
11
99
125
109
131
143
48
186
108
90
170
176
129
192
158
-1
EOF